(set-logic ALL)
(declare-var i (_ BitVec 32))
(declare-var i! (_ BitVec 32))
(declare-var j (_ BitVec 32))
(declare-var j! (_ BitVec 32))
(declare-var k (_ BitVec 32))
(declare-var k! (_ BitVec 32))
(declare-var n (_ BitVec 32))
(declare-var n! (_ BitVec 32))
(declare-var i_0 (_ BitVec 32))
(declare-var i_0! (_ BitVec 32))
(declare-var i_1 (_ BitVec 32))
(declare-var i_1! (_ BitVec 32))
(declare-var i_2 (_ BitVec 32))
(declare-var i_2! (_ BitVec 32))
(declare-var i_3 (_ BitVec 32))
(declare-var i_3! (_ BitVec 32))
(declare-var j_0 (_ BitVec 32))
(declare-var j_0! (_ BitVec 32))
(declare-var j_1 (_ BitVec 32))
(declare-var j_1! (_ BitVec 32))
(declare-var j_2 (_ BitVec 32))
(declare-var j_2! (_ BitVec 32))
(declare-var j_3 (_ BitVec 32))
(declare-var j_3! (_ BitVec 32))
(declare-var k_0 (_ BitVec 32))
(declare-var k_0! (_ BitVec 32))
(declare-var n_0 (_ BitVec 32))
(declare-var n_0! (_ BitVec 32))
(synth-fun inv-f((parameter0 (_ BitVec 32))(parameter1 (_ BitVec 32))(parameter2 (_ BitVec 32))(parameter3 (_ BitVec 32))(parameter4 (_ BitVec 32))(parameter5 (_ BitVec 32))(parameter6 (_ BitVec 32))(parameter7 (_ BitVec 32))(parameter8 (_ BitVec 32))(parameter9 (_ BitVec 32))(parameter10 (_ BitVec 32))(parameter11 (_ BitVec 32))(parameter12 (_ BitVec 32))(parameter13 (_ BitVec 32)))Bool) 
(constraint (=> (and (and (and (and (and (and (and (= i i_1) (= j j_1) ) (= k k_0) ) (= n n_0) ) (bvuge k_0 (_ bv0 32)) ) (bvuge n_0 (_ bv0 32)) ) (= i_1 (_ bv0 32)) ) (= j_1 (_ bv0 32)) )(inv-f i j k n i_0 i_1 i_2 i_3 j_0 j_1 j_2 j_3 k_0 n_0 )))
(constraint (=> (and (inv-f i j k n i_0 i_1 i_2 i_3 j_0 j_1 j_2 j_3 k_0 n_0 ) (or (and (and (and (and (and (and (and (= i_2 i) (= j_2 j) ) (= i_2 i!) ) (= j_2 j!) ) (= n n_0) ) (= n! n_0) ) (= j j!) ) (= k k!) ) (and (and (and (and (and (and (and (and (and (and (= i_2 i) (= j_2 j) ) (bvule i_2 n_0) ) (= i_3 (bvadd i_2 (_ bv1 32))) ) (= j_3 (bvadd j_2 i_3)) ) (= i_3 i!) ) (= j_3 j!) ) (= k k_0) ) (= k! k_0) ) (= n n_0) ) (= n! n_0) ) ) )(inv-f i! j! k! n! i_0! i_1! i_2! i_3! j_0! j_1! j_2! j_3! k_0! n_0! )))
(constraint (=> (inv-f i j k n i_0 i_1 i_2 i_3 j_0 j_1 j_2 j_3 k_0 n_0 )(or (not (and (and (and (= i i_2) (= j j_2) ) (= k k_0) ) (= n n_0) )) (not (and (not (bvule i_2 n_0)) (not (bvugt (bvadd i_2 (bvadd j_2 k_0)) (bvmul (_ bv2 32) n_0))) )) )))
(check-synth)

